id: 1211
name: ns1111636
group: miplib2010
method: 2

Gurobi 7.0.2 (linux64, Matlab) logging started Mon Mar 26 10:16:16 2018


Gurobi 7.0.2 (linux64) logging started Mon Mar 26 10:16:16 2018

Optimize a model with 13895 rows, 360822 columns and 568444 nonzeros
Coefficient statistics:
  Matrix range     [1e+00, 2e+02]
  Objective range  [4e+00, 1e+01]
  Bounds range     [1e+00, 1e+00]
  RHS range        [1e+00, 8e+03]
Presolve removed 1705 rows and 285600 columns
Presolve time: 0.18s
Presolved: 12190 rows, 75222 columns, 286102 nonzeros

Ordering time: 0.07s

Barrier statistics:
 AA' NZ     : 2.405e+05
 Factor NZ  : 6.054e+05 (roughly 40 MBytes of memory)
 Factor Ops : 4.942e+07 (less than 1 second per iteration)
 Threads    : 4

                  Objective                Residual
Iter       Primal          Dual         Primal    Dual     Compl     Time
   0   8.02477647e+04 -2.69315303e+04  3.48e+03 2.08e+00  6.14e+00     0s
   1   6.62356906e+03 -2.51619003e+04  2.52e+02 2.38e+00  8.03e-01     0s
   2   1.40358663e+03 -1.77395491e+04  2.76e+01 1.79e+00  3.67e-01     0s
   3   4.04931921e+02 -1.92441347e+03  4.71e-01 1.05e-01  3.38e-02     0s
   4   2.63814536e+02 -1.09813025e+03  1.07e-01 6.00e-02  1.94e-02     0s
   5   2.11180183e+02 -2.53031709e+02  5.10e-02 1.93e-02  6.46e-03     0s
   6   1.75162414e+02 -1.08793479e+01  1.94e-02 7.18e-03  2.51e-03     0s
   7   1.14257148e+02  8.36943495e+01  5.91e-04 6.25e-04  3.50e-04     0s
   8   9.79215552e+01  9.26350402e+01  1.93e-05 1.97e-04  6.31e-05     0s
   9   9.65563845e+01  9.57396300e+01  1.14e-06 2.47e-05  9.50e-06     0s
  10   9.62528003e+01  9.62479566e+01  1.03e-11 7.11e-15  5.04e-08     1s
  11   9.62500028e+01  9.62499980e+01  1.75e-10 7.11e-15  5.04e-11     1s
  12   9.62500000e+01  9.62500000e+01  5.42e-11 7.11e-15  1.51e-15     1s

Barrier solved model in 12 iterations and 0.56 seconds
Optimal objective 9.62500000e+01

Crossover log...

       0 DPushes remaining with DInf 1.0669937e-13                 1s

    3042 PPushes remaining with PInf 0.0000000e+00                 1s
       0 PPushes remaining with PInf 0.0000000e+00                 1s

  Push phase complete: Pinf 0.0000000e+00, Dinf 1.0679912e-13      1s

Iteration    Objective       Primal Inf.    Dual Inf.      Time
    6561    9.6250000e+01   0.000000e+00   0.000000e+00      1s
    6561    9.6250000e+01   0.000000e+00   0.000000e+00      1s

Solved in 6561 iterations and 0.68 seconds
Optimal objective  9.625000000e+01
status: OPTIMAL
